(declare-fun e () String)
(declare-fun c () String)
(declare-fun g () String)
(declare-fun d () String)
(declare-fun f () String)
(declare-fun a () String)
(declare-fun h () String)
(assert (= d (str.++ h a "d" g "fa")))
(assert (= g (str.++ a h c)))
(assert (= (str.++ e "ff" e) (str.++ "ge" f "b")))

(check-sat)
